(set-logic QF_S)
(set-option :strings-exp true)
(set-option :produce-models true)
(declare-fun sigmaStar_0 () String)
(declare-fun literal_4 () String)
(assert (= literal_4 "\x3c\x63\x65\x6e\x74\x65\x72\x3e\x3c\x74\x61\x62\x6c\x65\x20\x63\x65\x6c\x6c\x70\x61\x64\x64\x69\x6e\x67\x3d\x22\x35\x22\x20\x62\x6f\x72\x64\x65\x72\x3d\x22\x31\x22\x3e\x3c\x74\x72\x3e\x3c\x74\x64\x20\x61\x6c\x69\x67\x6e\x3d\x22\x43\x45\x4e\x54\x45\x52\x22\x3e\x6e\x75\x6d\x62\x65\x72\x6f\x66\x6e\x65\x67\x61\x74\x69\x76\x65\x72\x65\x73\x70\x6f\x6e\x73\x65\x73"))
(assert (str.in.re literal_4 (re.++ (re.* re.allchar) (re.++ (str.to.re "\x5c\x3c\x53\x43\x52\x49\x50\x54") (re.* re.allchar)))))
(check-sat)
(get-model)
